     Program PWSCF v.6.7MaX starts on 24May2024 at 14:11:11

     Waiting for input...
     Reading input from standard input

     Current dimensions of program PWSCF are:
     Max number of different atomic species (ntypx) = 10
     Max number of k-points (npk) =  40000
     Max angular momentum in pseudopotentials (lmaxx) =  3
     file C.pbe-n-kjpaw_psl.1.0.0.UPF: wavefunction(s)  2S 2P renormalized

     Subspace diagonalization in iterative solution of the eigenvalue problem:
     a serial algorithm will be used

     Message from routine setup:
     using ibrav=0 with symmetry is DISCOURAGED, use correct ibrav instead

     bravais-lattice index     =            0
     lattice parameter (alat)  =       5.4472  a.u.
     unit-cell volume          =     218.5677 (a.u.)^3
     number of atoms/cell      =            3
     number of atomic types    =            2
     number of electrons       =        30.00
     number of Kohn-Sham states=           19
     kinetic-energy cutoff     =      45.0000  Ry
     charge density cutoff     =     360.0000  Ry
     scf convergence threshold =      6.0E-10
     mixing beta               =       0.4000
     number of iterations used =            8  plain     mixing
     energy convergence thresh.=      1.0E-05
     force convergence thresh. =      1.0E-04
     press convergence thresh. =      5.0E-01
     Exchange-correlation=  SLA  PW   PBX  PBC
                           (   1   4   3   4   0   0   0)
     nstep                     =           50

     celldm(1)=   5.447159  celldm(2)=   0.000000  celldm(3)=   0.000000
     celldm(4)=   0.000000  celldm(5)=   0.000000  celldm(6)=   0.000000

     crystal axes: (cart. coord. in units of alat)
               a(1) = (  -0.500000  -0.866025  -0.000000 )
               a(2) = (  -0.500000   0.866025   0.000000 )
               a(3) = (   0.000000   0.000000  -1.561512 )

     reciprocal axes: (cart. coord. in units 2 pi/alat)
               b(1) = ( -1.000000 -0.577350 -0.000000 )
               b(2) = ( -1.000000  0.577350  0.000000 )
               b(3) = (  0.000000  0.000000 -0.640405 )

     PseudoPot. # 1 for C  read from file:
     /usr/share/espresso/pseudo/C.pbe-n-kjpaw_psl.1.0.0.UPF
     MD5 check sum: 5d2aebdfa2cae82b50a7e79e9516da0f
     Pseudo is Projector augmented-wave + core cor, Zval =  4.0
     Generated using "atomic" code by A. Dal Corso  v.5.1
     Shape of augmentation charge: PSQ
     Using radial grid of 1073 points,  4 beta functions with:
                l(1) =   0
                l(2) =   0
                l(3) =   1
                l(4) =   1
     Q(r) pseudized with 0 coefficients

     PseudoPot. # 2 for V  read from file:
     /usr/share/espresso/pseudo/v_pbe_v1.4.uspp.F.UPF
     MD5 check sum: 22b79981416ebb76fdaf5b1b8640f6fb
     Pseudo is Ultrasoft + core correction, Zval = 13.0
     Generated by new atomic code, or converted to UPF format
     Using radial grid of  853 points,  6 beta functions with:
                l(1) =   0
                l(2) =   0
                l(3) =   1
                l(4) =   1
                l(5) =   2
                l(6) =   2
     Q(r) pseudized with  8 coefficients,  rinner =    1.100   1.100   1.100
                                                       1.100   1.100

     atomic species   valence    mass     pseudopotential
        C              4.00    12.01070     C ( 1.00)
        V             13.00    50.94150     V ( 1.00)

     12 Sym. Ops., with inversion, found

                                    s                        frac. trans.

      isym =  1     identity

 cryst.   s( 1) = (     1          0          0      )
                  (     0          1          0      )
                  (     0          0          1      )

 cart.    s( 1) = (  1.0000000  0.0000000  0.0000000 )
                  (  0.0000000  1.0000000  0.0000000 )
                  (  0.0000000  0.0000000  1.0000000 )

      isym =  2     180 deg rotation - cart. axis [1,0,0]

[...]

      isym =  3     120 deg rotation - cryst. axis [0,0,1]

[...]

      isym =  7     inversion

[...]

      isym =  8     inv. 180 deg rotation - cart. axis [1,0,0]

[...]

      isym =  9     inv. 120 deg rotation - cryst. axis [0,0,1]

[...]

 cryst.   s(10) = (     0         -1          0      )
                  (     1          1          0      )
                  (     0          0         -1      )

 cart.    s(10) = (  0.5000000 -0.8660254  0.0000000 )
                  (  0.8660254  0.5000000  0.0000000 )
                  (  0.0000000  0.0000000 -1.0000000 )

[...]

   Cartesian axes

     site n.     atom                  positions (alat units)
         1           V   tau(   1) = (  -0.5000000   0.2886751  -0.3984485  )
         2           V   tau(   2) = (  -0.5000000  -0.2886751  -1.1630630  )
         3           C   tau(   3) = (   0.0000000   0.0000000   0.0000000  )

   Crystallographic axes

     site n.     atom                  positions (cryst. coord.)
         1           V   tau(   1) = (  0.3333333  0.6666667  0.2551685  )
         2           V   tau(   2) = (  0.6666667  0.3333333  0.7448315  )
         3           C   tau(   3) = ( -0.0000000  0.0000000  0.0000000  )

     number of k points=   126  Marzari-Vanderbilt smearing, width (Ry)=  0.0147
                       cart. coord. in units 2pi/alat
        k(    1) = (   0.0000000   0.0000000   0.0000000), wk =   0.0016906
        k(    2) = (   0.0000000   0.0000000  -0.0914864), wk =   0.0033812
        k(    3) = (   0.0000000   0.0000000  -0.1829729), wk =   0.0033812
        k(    4) = (   0.0000000   0.0000000  -0.2744593), wk =   0.0033812
        k(    5) = (  -0.0769231   0.0444116   0.0000000), wk =   0.0101437
        k(    6) = (  -0.0769231   0.0444116  -0.0914864), wk =   0.0101437
        k(    7) = (  -0.0769231   0.0444116  -0.1829729), wk =   0.0101437
        k(    8) = (  -0.0769231   0.0444116  -0.2744593), wk =   0.0101437
        k(    9) = (  -0.1538462   0.0888231   0.0000000), wk =   0.0101437
        k(   10) = (  -0.1538462   0.0888231  -0.0914864), wk =   0.0101437
        k(   11) = (  -0.1538462   0.0888231  -0.1829729), wk =   0.0101437
        k(   12) = (  -0.1538462   0.0888231  -0.2744593), wk =   0.0101437
        k(   13) = (  -0.2307692   0.1332347   0.0000000), wk =   0.0101437
        k(   14) = (  -0.2307692   0.1332347  -0.0914864), wk =   0.0101437
        k(   15) = (  -0.2307692   0.1332347  -0.1829729), wk =   0.0101437
        k(   16) = (  -0.2307692   0.1332347  -0.2744593), wk =   0.0101437
        k(   17) = (  -0.3076923   0.1776462   0.0000000), wk =   0.0101437
        k(   18) = (  -0.3076923   0.1776462  -0.0914864), wk =   0.0101437
        k(   19) = (  -0.3076923   0.1776462  -0.1829729), wk =   0.0101437
        k(   20) = (  -0.3076923   0.1776462  -0.2744593), wk =   0.0101437
        k(   21) = (  -0.3846154   0.2220578   0.0000000), wk =   0.0101437
        k(   22) = (  -0.3846154   0.2220578  -0.0914864), wk =   0.0101437
        k(   23) = (  -0.3846154   0.2220578  -0.1829729), wk =   0.0101437
        k(   24) = (  -0.3846154   0.2220578  -0.2744593), wk =   0.0101437
        k(   25) = (  -0.4615385   0.2664694   0.0000000), wk =   0.0101437
        k(   26) = (  -0.4615385   0.2664694  -0.0914864), wk =   0.0101437
        k(   27) = (  -0.4615385   0.2664694  -0.1829729), wk =   0.0101437
        k(   28) = (  -0.4615385   0.2664694  -0.2744593), wk =   0.0101437
        k(   29) = (  -0.1538462   0.0000000   0.0000000), wk =   0.0101437
        k(   30) = (  -0.1538462   0.0000000  -0.0914864), wk =   0.0202874
        k(   31) = (  -0.1538462   0.0000000  -0.1829729), wk =   0.0202874
        k(   32) = (  -0.1538462   0.0000000  -0.2744593), wk =   0.0202874
        k(   33) = (  -0.2307692   0.0444116   0.0000000), wk =   0.0202874
        k(   34) = (  -0.2307692   0.0444116  -0.0914864), wk =   0.0202874
        k(   35) = (  -0.2307692   0.0444116  -0.1829729), wk =   0.0202874
        k(   36) = (  -0.2307692   0.0444116  -0.2744593), wk =   0.0202874
        k(   37) = (  -0.3076923   0.0888231   0.0000000), wk =   0.0202874
        k(   38) = (  -0.3076923   0.0888231  -0.0914864), wk =   0.0202874
        k(   39) = (  -0.3076923   0.0888231  -0.1829729), wk =   0.0202874
        k(   40) = (  -0.3076923   0.0888231  -0.2744593), wk =   0.0202874
        k(   41) = (  -0.3846154   0.1332347   0.0000000), wk =   0.0202874
        k(   42) = (  -0.3846154   0.1332347  -0.0914864), wk =   0.0202874
        k(   43) = (  -0.3846154   0.1332347  -0.1829729), wk =   0.0202874
        k(   44) = (  -0.3846154   0.1332347  -0.2744593), wk =   0.0202874
        k(   45) = (  -0.4615385   0.1776462   0.0000000), wk =   0.0202874
        k(   46) = (  -0.4615385   0.1776462  -0.0914864), wk =   0.0202874
        k(   47) = (  -0.4615385   0.1776462  -0.1829729), wk =   0.0202874
        k(   48) = (  -0.4615385   0.1776462  -0.2744593), wk =   0.0202874
        k(   49) = (  -0.5384615   0.2220578   0.0000000), wk =   0.0101437
        k(   50) = (  -0.5384615   0.2220578  -0.0914864), wk =   0.0202874
        k(   51) = (  -0.5384615   0.2220578  -0.1829729), wk =   0.0202874
        k(   52) = (  -0.5384615   0.2220578  -0.2744593), wk =   0.0202874
        k(   53) = (  -0.3076923   0.0000000   0.0000000), wk =   0.0101437
        k(   54) = (  -0.3076923   0.0000000  -0.0914864), wk =   0.0202874
        k(   55) = (  -0.3076923   0.0000000  -0.1829729), wk =   0.0202874
        k(   56) = (  -0.3076923   0.0000000  -0.2744593), wk =   0.0202874
        k(   57) = (  -0.3846154   0.0444116   0.0000000), wk =   0.0202874
        k(   58) = (  -0.3846154   0.0444116  -0.0914864), wk =   0.0202874
        k(   59) = (  -0.3846154   0.0444116  -0.1829729), wk =   0.0202874
        k(   60) = (  -0.3846154   0.0444116  -0.2744593), wk =   0.0202874
[...]
        k(  112) = (   0.4615385   0.1776462   0.0914864), wk =   0.0202874
        k(  113) = (   0.4615385   0.1776462   0.1829729), wk =   0.0202874
        k(  114) = (   0.4615385   0.1776462   0.2744593), wk =   0.0202874
        k(  115) = (   0.3846154   0.0444116   0.0914864), wk =   0.0202874
        k(  116) = (   0.3846154   0.0444116   0.1829729), wk =   0.0202874
        k(  117) = (   0.3846154   0.0444116   0.2744593), wk =   0.0202874
        k(  118) = (   0.4615385   0.0888231   0.0914864), wk =   0.0202874
        k(  119) = (   0.4615385   0.0888231   0.1829729), wk =   0.0202874
        k(  120) = (   0.4615385   0.0888231   0.2744593), wk =   0.0202874
        k(  121) = (   0.5384615   0.1332347   0.0914864), wk =   0.0202874
        k(  122) = (   0.5384615   0.1332347   0.1829729), wk =   0.0202874
        k(  123) = (   0.5384615   0.1332347   0.2744593), wk =   0.0202874
        k(  124) = (   0.5384615   0.0444116   0.0914864), wk =   0.0202874
        k(  125) = (   0.5384615   0.0444116   0.1829729), wk =   0.0202874
        k(  126) = (   0.5384615   0.0444116   0.2744593), wk =   0.0202874

                       cryst. coord.
        k(    1) = (  -0.0000000   0.0000000   0.0000000), wk =   0.0016906
[...]
        k(   41) = (  -0.3840347   0.1330335   0.0000000), wk =   0.0202874
        k(   42) = (  -0.3840347   0.1330335  -0.0910484), wk =   0.0202874
        k(   43) = (  -0.3840347   0.1330335  -0.1820968), wk =   0.0202874
        k(   44) = (  -0.3840347   0.1330335  -0.2731453), wk =   0.0202874
        k(   45) = (  -0.4608417   0.1773780   0.0000000), wk =   0.0202874
        k(   46) = (  -0.4608417   0.1773780  -0.0910484), wk =   0.0202874
        k(   47) = (  -0.4608417   0.1773780  -0.1820968), wk =   0.0202874
        k(   48) = (  -0.4608417   0.1773780  -0.2731453), wk =   0.0202874
        k(   49) = (  -0.5376486   0.2217225   0.0000000), wk =   0.0101437
        k(   50) = (  -0.5376486   0.2217225  -0.0910484), wk =   0.0202874
        k(   51) = (  -0.5376486   0.2217225  -0.1820968), wk =   0.0202874
        k(   52) = (  -0.5376486   0.2217225  -0.2731453), wk =   0.0202874
        k(   53) = (  -0.3072278   0.0000000   0.0000000), wk =   0.0101437
        k(   54) = (  -0.3072278   0.0000000  -0.0910484), wk =   0.0202874
        k(   55) = (  -0.3072278   0.0000000  -0.1820968), wk =   0.0202874
        k(   56) = (  -0.3072278   0.0000000  -0.2731453), wk =   0.0202874
        k(   57) = (  -0.3840347   0.0443445   0.0000000), wk =   0.0202874
        k(   58) = (  -0.3840347   0.0443445  -0.0910484), wk =   0.0202874
        k(   59) = (  -0.3840347   0.0443445  -0.1820968), wk =   0.0202874
        k(   60) = (  -0.3840347   0.0443445  -0.2731453), wk =   0.0202874
[...]
        k(  112) = (   0.4608417   0.1773780   0.0910484), wk =   0.0202874
        k(  113) = (   0.4608417   0.1773780   0.1820968), wk =   0.0202874
        k(  114) = (   0.4608417   0.1773780   0.2731453), wk =   0.0202874
        k(  115) = (   0.3840347   0.0443445   0.0910484), wk =   0.0202874
        k(  116) = (   0.3840347   0.0443445   0.1820968), wk =   0.0202874
        k(  117) = (   0.3840347   0.0443445   0.2731453), wk =   0.0202874
        k(  118) = (   0.4608417   0.0886890   0.0910484), wk =   0.0202874
        k(  119) = (   0.4608417   0.0886890   0.1820968), wk =   0.0202874
        k(  120) = (   0.4608417   0.0886890   0.2731453), wk =   0.0202874
        k(  121) = (   0.5376486   0.1330335   0.0910484), wk =   0.0202874
        k(  122) = (   0.5376486   0.1330335   0.1820968), wk =   0.0202874
        k(  123) = (   0.5376486   0.1330335   0.2731453), wk =   0.0202874
        k(  124) = (   0.5376486   0.0443445   0.0910484), wk =   0.0202874
        k(  125) = (   0.5376486   0.0443445   0.1820968), wk =   0.0202874
        k(  126) = (   0.5376486   0.0443445   0.2731453), wk =   0.0202874

                       cryst. coord.
        k(    1) = (  -0.0000000   0.0000000   0.0000000), wk =   0.0016906
        k(    2) = (   0.0000000   0.0000000   0.1428571), wk =   0.0033812
        k(    3) = (   0.0000000   0.0000000   0.2857143), wk =   0.0033812
        k(    4) = (   0.0000000   0.0000000   0.4285714), wk =   0.0033812
        k(    5) = (  -0.0000000   0.0769231   0.0000000), wk =   0.0101437
        k(    6) = (  -0.0000000   0.0769231   0.1428571), wk =   0.0101437
        k(    7) = (  -0.0000000   0.0769231   0.2857143), wk =   0.0101437
        k(    8) = (  -0.0000000   0.0769231   0.4285714), wk =   0.0101437
        k(    9) = (  -0.0000000   0.1538462   0.0000000), wk =   0.0101437
        k(   10) = (  -0.0000000   0.1538462   0.1428571), wk =   0.0101437
        k(   11) = (  -0.0000000   0.1538462   0.2857143), wk =   0.0101437
        k(   12) = (  -0.0000000   0.1538462   0.4285714), wk =   0.0101437
        k(   13) = (   0.0000000   0.2307692   0.0000000), wk =   0.0101437
        k(   14) = (   0.0000000   0.2307692   0.1428571), wk =   0.0101437
        k(   15) = (   0.0000000   0.2307692   0.2857143), wk =   0.0101437
        k(   16) = (   0.0000000   0.2307692   0.4285714), wk =   0.0101437
        k(   17) = (  -0.0000000   0.3076923   0.0000000), wk =   0.0101437
        k(   18) = (  -0.0000000   0.3076923   0.1428571), wk =   0.0101437
        k(   19) = (  -0.0000000   0.3076923   0.2857143), wk =   0.0101437
        k(   20) = (  -0.0000000   0.3076923   0.4285714), wk =   0.0101437
        k(   21) = (  -0.0000000   0.3846154   0.0000000), wk =   0.0101437
        k(   22) = (  -0.0000000   0.3846154   0.1428571), wk =   0.0101437
        k(   23) = (  -0.0000000   0.3846154   0.2857143), wk =   0.0101437
        k(   24) = (  -0.0000000   0.3846154   0.4285714), wk =   0.0101437
        k(   25) = (   0.0000000   0.4615385   0.0000000), wk =   0.0101437
        k(   26) = (   0.0000000   0.4615385   0.1428571), wk =   0.0101437
        k(   27) = (   0.0000000   0.4615385   0.2857143), wk =   0.0101437
        k(   28) = (   0.0000000   0.4615385   0.4285714), wk =   0.0101437
        k(   29) = (   0.0769231   0.0769231   0.0000000), wk =   0.0101437
        k(   30) = (   0.0769231   0.0769231   0.1428571), wk =   0.0202874
        k(   31) = (   0.0769231   0.0769231   0.2857143), wk =   0.0202874
        k(   32) = (   0.0769231   0.0769231   0.4285714), wk =   0.0202874
        k(   33) = (   0.0769231   0.1538462   0.0000000), wk =   0.0202874
        k(   34) = (   0.0769231   0.1538462   0.1428571), wk =   0.0202874
        k(   35) = (   0.0769231   0.1538462   0.2857143), wk =   0.0202874
        k(   36) = (   0.0769231   0.1538462   0.4285714), wk =   0.0202874
        k(   37) = (   0.0769231   0.2307692   0.0000000), wk =   0.0202874
        k(   38) = (   0.0769231   0.2307692   0.1428571), wk =   0.0202874
        k(   39) = (   0.0769231   0.2307692   0.2857143), wk =   0.0202874
        k(   40) = (   0.0769231   0.2307692   0.4285714), wk =   0.0202874
        k(   41) = (   0.0769231   0.3076923   0.0000000), wk =   0.0202874
        k(   42) = (   0.0769231   0.3076923   0.1428571), wk =   0.0202874
        k(   43) = (   0.0769231   0.3076923   0.2857143), wk =   0.0202874
        k(   44) = (   0.0769231   0.3076923   0.4285714), wk =   0.0202874
        k(   45) = (   0.0769231   0.3846154   0.0000000), wk =   0.0202874
        k(   46) = (   0.0769231   0.3846154   0.1428571), wk =   0.0202874
        k(   47) = (   0.0769231   0.3846154   0.2857143), wk =   0.0202874
        k(   48) = (   0.0769231   0.3846154   0.4285714), wk =   0.0202874
        k(   49) = (   0.0769231   0.4615385   0.0000000), wk =   0.0101437
        k(   50) = (   0.0769231   0.4615385   0.1428571), wk =   0.0202874
        k(   51) = (   0.0769231   0.4615385   0.2857143), wk =   0.0202874
        k(   52) = (   0.0769231   0.4615385   0.4285714), wk =   0.0202874
        k(   53) = (   0.1538462   0.1538462   0.0000000), wk =   0.0101437
        k(   54) = (   0.1538462   0.1538462   0.1428571), wk =   0.0202874
        k(   55) = (   0.1538462   0.1538462   0.2857143), wk =   0.0202874
        k(   56) = (   0.1538462   0.1538462   0.4285714), wk =   0.0202874
        k(   57) = (   0.1538462   0.2307692   0.0000000), wk =   0.0202874
        k(   58) = (   0.1538462   0.2307692   0.1428571), wk =   0.0202874
        k(   59) = (   0.1538462   0.2307692   0.2857143), wk =   0.0202874
        k(   60) = (   0.1538462   0.2307692   0.4285714), wk =   0.0202874
[...]
        k(  112) = (  -0.3846154  -0.0769231  -0.1428571), wk =   0.0202874
        k(  113) = (  -0.3846154  -0.0769231  -0.2857143), wk =   0.0202874
        k(  114) = (  -0.3846154  -0.0769231  -0.4285714), wk =   0.0202874
        k(  115) = (  -0.2307692  -0.1538462  -0.1428571), wk =   0.0202874
        k(  116) = (  -0.2307692  -0.1538462  -0.2857143), wk =   0.0202874
        k(  117) = (  -0.2307692  -0.1538462  -0.4285714), wk =   0.0202874
        k(  118) = (  -0.3076923  -0.1538462  -0.1428571), wk =   0.0202874
        k(  119) = (  -0.3076923  -0.1538462  -0.2857143), wk =   0.0202874
        k(  120) = (  -0.3076923  -0.1538462  -0.4285714), wk =   0.0202874
        k(  121) = (  -0.3846154  -0.1538462  -0.1428571), wk =   0.0202874
        k(  122) = (  -0.3846154  -0.1538462  -0.2857143), wk =   0.0202874
        k(  123) = (  -0.3846154  -0.1538462  -0.4285714), wk =   0.0202874
        k(  124) = (  -0.3076923  -0.2307692  -0.1428571), wk =   0.0202874
        k(  125) = (  -0.3076923  -0.2307692  -0.2857143), wk =   0.0202874
        k(  126) = (  -0.3076923  -0.2307692  -0.4285714), wk =   0.0202874

     Check: negative core charge=   -0.000007

     Initial potential from superposition of free atoms

     starting charge   29.99750, renormalised to   30.00000

     negative rho (up, down):  1.307E-03 0.000E+00
     Starting wfcs are   24 randomized atomic wfcs
     Checking if some PAW data can be deallocated...

     Self-consistent Calculation

     iteration #  1     ecut=    45.00 Ry     beta= 0.40
     Davidson diagonalization with overlap
     c_bands:  1 eigenvalues not converged
     c_bands:  1 eigenvalues not converged
     c_bands:  1 eigenvalues not converged
     c_bands:  1 eigenvalues not converged
     c_bands:  1 eigenvalues not converged
     c_bands:  2 eigenvalues not converged
     c_bands:  1 eigenvalues not converged
     c_bands:  1 eigenvalues not converged
     c_bands:  1 eigenvalues not converged
     c_bands:  1 eigenvalues not converged
     c_bands:  2 eigenvalues not converged
     c_bands:  2 eigenvalues not converged
     c_bands:  1 eigenvalues not converged
     c_bands:  1 eigenvalues not converged
     c_bands:  1 eigenvalues not converged
     c_bands:  1 eigenvalues not converged
     c_bands:  1 eigenvalues not converged
     c_bands:  1 eigenvalues not converged
     c_bands:  1 eigenvalues not converged
     c_bands:  1 eigenvalues not converged
     c_bands:  1 eigenvalues not converged
     c_bands:  1 eigenvalues not converged
     c_bands:  1 eigenvalues not converged
     c_bands:  1 eigenvalues not converged
     c_bands:  1 eigenvalues not converged
     c_bands:  1 eigenvalues not converged
     c_bands:  1 eigenvalues not converged
     c_bands:  1 eigenvalues not converged
     c_bands:  1 eigenvalues not converged
     ethr =  1.00E-06,  avg # of iterations = 16.6

[...]

     total energy              =    -308.69772947 Ry
     estimated scf accuracy    <          1.9E-09 Ry

     iteration # 13     ecut=    45.00 Ry     beta= 0.40
     Davidson diagonalization with overlap
     ethr =  1.73E-12,  avg # of iterations =  4.0

[...]

     End of self-consistent calculation

[...]

          k =-0.6145 0.0000-0.2731 (  1114 PWs)   bands (ev):

[...]

          k = 0.5376 0.0443 0.2731 (  1125 PWs)   bands (ev):

   -48.1547 -48.1487 -22.2618 -22.2597 -22.0983 -22.0645 -21.8880 -21.8617
     5.5430  10.7441  11.6925  12.1891  14.8568  15.0233  15.2471  16.6184
    17.3636  18.2070  18.5426

     occupation numbers
     1.0000   1.0000   1.0000   1.0000   1.0000   1.0000   1.0000   1.0000
     1.0000   1.0000   1.0000   1.0000   1.0000   1.0000   1.0001   0.0000
     0.0000   0.0000   0.0000

     the Fermi energy is    15.9645 ev

!    total energy              =    -308.69772947 Ry
     estimated scf accuracy    <          2.7E-11 Ry
     smearing contrib. (-TS)   =       0.00109320 Ry
     internal energy E=F+TS    =    -308.69882267 Ry

     The total energy is F=E-TS. E is the sum of the following terms:
     one-electron contribution =     -95.04130503 Ry
     hartree contribution      =      62.28656561 Ry
     xc contribution           =     -43.88588243 Ry
     ewald contribution        =    -225.88223565 Ry
     one-center paw contrib.   =      -6.17596518 Ry
      -> PAW hartree energy AE =       8.12552320 Ry
      -> PAW hartree energy PS =      -8.11647393 Ry
      -> PAW xc energy AE      =     -10.34878196 Ry
      -> PAW xc energy PS      =       4.16376751 Ry
      -> total E_H with PAW    =      62.29561488 Ry
      -> total E_XC with PAW   =     -50.07089688 Ry

     convergence has been achieved in  13 iterations

     negative rho (up, down):  2.047E-03 0.000E+00

     Forces acting on atoms (cartesian axes, Ry/au):

     atom    1 type  2   force =    -0.00000000    0.00000000    0.00003675
     atom    2 type  2   force =     0.00000000    0.00000000   -0.00003675
     atom    3 type  1   force =     0.00000000    0.00000000    0.00000000
     The non-local contrib.  to forces
     atom    1 type  2   force =    -0.00000000    0.00000000    0.06935015
     atom    2 type  2   force =     0.00000000    0.00000000   -0.06935015
     atom    3 type  1   force =     0.00000000    0.00000000    0.00000000
     The ionic contribution  to forces
     atom    1 type  2   force =     0.00000000   -0.00000000   -8.01095141
     atom    2 type  2   force =     0.00000000    0.00000000    8.01095141
     atom    3 type  1   force =    -0.00000000   -0.00000000    0.00000000
     The local contribution  to forces
     atom    1 type  2   force =    -0.00000000   -0.00000003    7.94109411
     atom    2 type  2   force =    -0.00000000    0.00000003   -7.94109411
     atom    3 type  1   force =    -0.00000000    0.00000000   -0.00000000
     The core correction contribution to forces
     atom    1 type  2   force =    -0.00000000    0.00000000    0.00052242
     atom    2 type  2   force =    -0.00000000   -0.00000000   -0.00052242
     atom    3 type  1   force =    -0.00000000    0.00000000   -0.00000000
     The Hubbard contrib.    to forces
     atom    1 type  2   force =     0.00000000    0.00000000    0.00000000
     atom    2 type  2   force =     0.00000000    0.00000000    0.00000000
     atom    3 type  1   force =     0.00000000    0.00000000    0.00000000
     The SCF correction term to forces
     atom    1 type  2   force =     0.00000000   -0.00000000    0.00002149
     atom    2 type  2   force =    -0.00000000    0.00000000   -0.00002149
     atom    3 type  1   force =    -0.00000000   -0.00000000    0.00000000

     Total force =     0.000052     Total SCF correction =     0.000030
     SCF correction compared to forces is large: reduce conv_thr to get better values

     Computing stress (Cartesian axis) and pressure

     negative rho (up, down):  2.047E-03 0.000E+00
          total   stress  (Ry/bohr**3)                   (kbar)     P=        0.08
   0.00000132   0.00000000   0.00000000            0.19        0.00        0.00
   0.00000000   0.00000132   0.00000000            0.00        0.19        0.00
   0.00000000   0.00000000  -0.00000107            0.00        0.00       -0.16

     kinetic stress (kbar)  35836.08      0.00      0.00
                                0.00  35836.08     -0.00
                                0.00     -0.00  36052.36

     local   stress (kbar)   8475.65      0.00     -0.00
                                0.00   8475.65     -0.00
                               -0.00     -0.00  11027.35

     nonloc. stress (kbar)    181.03      0.00      0.00
                                0.00    181.03      0.00
                                0.00      0.00    132.41

     hartree stress (kbar)  14251.01     -0.00      0.00
                               -0.00  14251.01     -0.00
                                0.00     -0.00  13092.83

     exc-cor stress (kbar)  -4774.75     -0.00     -0.00
                               -0.00  -4774.75     -0.00
                               -0.00     -0.00  -4770.91

     corecor stress (kbar)  -4209.14      0.00      0.00
                                0.00  -4209.14      0.00
                                0.00      0.00  -4209.87

     ewald   stress (kbar) -49759.68     -0.00     -0.00
                               -0.00 -49759.68      0.00
                               -0.00      0.00 -51324.33

     hubbard stress (kbar)      0.00      0.00      0.00
                                0.00      0.00      0.00
                                0.00      0.00      0.00

     DFT-D   stress (kbar)      0.00      0.00      0.00
                                0.00      0.00      0.00
                                0.00      0.00      0.00

     XDM     stress (kbar)      0.00      0.00      0.00
                                0.00      0.00      0.00
                                0.00      0.00      0.00

     dft-nl  stress (kbar)      0.00      0.00      0.00
                                0.00      0.00      0.00
                                0.00      0.00      0.00

     TS-vdW  stress (kbar)      0.00      0.00      0.00
                                0.00      0.00      0.00
                                0.00      0.00      0.00

     Writing output data file ./out/v2c.save/

     General routines

     Parallel routines

     PAW routines

   This run was terminated on:  14:35:38  24May2024

   JOB DONE.