     Program PHONON v.6.7MaX starts on  3Jun2024 at  4: 6:21

     Waiting for input...
     Reading input from standard input
      Title line not specified: using 'default'.

     Reading xml data from directory:

     ./out/v2c.save/
     file C.pbe-n-kjpaw_psl.1.0.0.UPF: wavefunction(s)  2S 2P renormalized

     IMPORTANT: XC functional enforced from input :
     Exchange-correlation= PBE
                           (   1   4   3   4   0   0   0)
     Any further DFT definition will be discarded
     Please, verify this is what you really want

     Check: negative core charge=   -0.000007

     negative rho (up, down):  1.844E-03 0.000E+00
     Reading collected, re-writing distributed wavefunctions

     Calculation of q =    0.0000000   0.0000000   0.0000000

     default

     bravais-lattice index     =            0
     lattice parameter (alat)  =       5.4472  a.u.
     unit-cell volume          =     218.5677 (a.u.)^3
     number of atoms/cell      =            3
     number of atomic types    =            2
     kinetic-energy cut-off    =      45.0000  Ry
     charge density cut-off    =     360.0000  Ry
     convergence threshold     =      1.0E-14
     beta                      =       0.7000
     number of iterations used =            4
     Exchange-correlation= PBE
                           (   1   4   3   4   0   0   0)

     celldm(1)=    5.44716  celldm(2)=    0.00000  celldm(3)=    0.00000
     celldm(4)=    0.00000  celldm(5)=    0.00000  celldm(6)=    0.00000

     crystal axes: (cart. coord. in units of alat)
               a(1) = ( -0.5000 -0.8660  0.0000 )
               a(2) = ( -0.5000  0.8660  0.0000 )
               a(3) = (  0.0000  0.0000 -1.5615 )

     reciprocal axes: (cart. coord. in units 2 pi/alat)
               b(1) = ( -1.0000 -0.5774 -0.0000 )
               b(2) = ( -1.0000  0.5774  0.0000 )
               b(3) = ( -0.0000  0.0000 -0.6404 )

     Atoms inside the unit cell:

     Cartesian axes

     site n.  atom      mass           positions (alat units)
        1     V   50.9415   tau(    1) = (   -0.50000    0.28868   -0.39845  )
        2     V   50.9415   tau(    2) = (   -0.50000   -0.28868   -1.16306  )
        3     C   12.0107   tau(    3) = (    0.00000    0.00000    0.00000  )

     Computing dynamical matrix for
                    q = (   0.0000000   0.0000000   0.0000000 )

     13 Sym.Ops. (with q -> -q+G )

     G cutoff =  270.5720  (  25371 G-vectors)     FFT grid: ( 36, 36, 54)
     G cutoff =  135.2860  (   8971 G-vectors)  smooth grid: ( 24, 24, 40)

     number of k points=   595  Marzari-Vanderbilt smearing, width (Ry)=  0.0147

     PseudoPot. # 1 for C  read from file:
     /usr/share/espresso/pseudo/C.pbe-n-kjpaw_psl.1.0.0.UPF
     MD5 check sum: 5d2aebdfa2cae82b50a7e79e9516da0f
     Pseudo is Projector augmented-wave + core cor, Zval =  4.0
     Generated using "atomic" code by A. Dal Corso  v.5.1
     Shape of augmentation charge: PSQ
     Using radial grid of 1073 points,  4 beta functions with:
                l(1) =   0
                l(2) =   0
                l(3) =   1
                l(4) =   1
     Q(r) pseudized with 0 coefficients

     PseudoPot. # 2 for V  read from file:
     /usr/share/espresso/pseudo/v_pbe_v1.4.uspp.F.UPF
     MD5 check sum: 22b79981416ebb76fdaf5b1b8640f6fb
     Pseudo is Ultrasoft + core correction, Zval = 13.0
     Generated by new atomic code, or converted to UPF format
     Using radial grid of  853 points,  6 beta functions with:
                l(1) =   0
                l(2) =   0
                l(3) =   1
                l(4) =   1
                l(5) =   2
                l(6) =   2
     Q(r) pseudized with  8 coefficients,  rinner =    1.100   1.100   1.100
                                                       1.100   1.100

     Mode symmetry, D_3d (-3m)  point group:

     Atomic displacements:
     There are    6 irreducible representations

     Representation     1      1 modes -  To be done

[...]

     Representation     6      2 modes -  To be done

     Alpha used in Ewald sum =   2.8000

     negative rho (up, down):  1.844E-03 0.000E+00

     Representation #   1 mode #   1

     Self-consistent Calculation

     Pert. #  1: Fermi energy shift (Ry) =    -2.4669E-01     5.1699E-25

      thresh= 1.000E-02 alpha_mix =  0.700 |ddv_scf|^2 =  4.571E-04

[...]

     End of self-consistent calculation

     Convergence has been achieved

     Representation #   2 modes #   2   3

[...]

     Representation #   4 mode #   5

[...]

     Representation #   6 modes #   8   9

     Self-consistent Calculation

[...]

     Pert. #  1: Fermi energy shift (Ry) =    -3.4466E-26     0.0000E+00
     Pert. #  2: Fermi energy shift (Ry) =     1.0340E-25     0.0000E+00

      thresh= 8.682E-08 alpha_mix =  0.700 |ddv_scf|^2 =  1.667E-15

     End of self-consistent calculation

     Convergence has been achieved

     Number of q in the star =    1
     List of q in the star:
          1  -0.000000000   0.000000000   0.000000000

     Diagonalizing the dynamical matrix

     q = (    0.000000000   0.000000000   0.000000000 )

     freq (    1) =      -0.759254 [THz] =     -25.325994 [cm-1]
     freq (    2) =      -0.385553 [THz] =     -12.860661 [cm-1]
     freq (    3) =      -0.385553 [THz] =     -12.860661 [cm-1]
     freq (    4) =       6.220616 [THz] =     207.497399 [cm-1]
     freq (    5) =       6.220616 [THz] =     207.497399 [cm-1]
     freq (    6) =      11.255688 [THz] =     375.449332 [cm-1]
     freq (    7) =      19.835143 [THz] =     661.629144 [cm-1]
     freq (    8) =      20.379002 [THz] =     679.770341 [cm-1]
     freq (    9) =      20.379002 [THz] =     679.770341 [cm-1]

     Mode symmetry, D_3d (-3m)  point group:

     freq (   1-   1) =        -25.3  [cm-1]   --> A_2u L_2'       I
     freq (   2-   3) =        -12.9  [cm-1]   --> E_u  L_3'       I
     freq (   4-   5) =        207.5  [cm-1]   --> E_g  L_3        R
     freq (   6-   6) =        375.4  [cm-1]   --> A_1g L_1        R
     freq (   7-   7) =        661.6  [cm-1]   --> A_2u L_2'       I
     freq (   8-   9) =        679.8  [cm-1]   --> E_u  L_3'       I

     INITIALIZATION:

     DYNAMICAL MATRIX:

      General routines

   This run was terminated on:  16: 1:38   3Jun2024

   JOB DONE.