     Program PWSCF v.6.7MaX starts on  3Jun2024 at  3:31:31

     Waiting for input...
     Reading input from standard input
Warning: card &CELL ignored
Warning: card CELL_DOFREE='IBRAV' ignored
Warning: card / ignored

     Current dimensions of program PWSCF are:
     Max number of different atomic species (ntypx) = 10
     Max number of k-points (npk) =  40000
     Max angular momentum in pseudopotentials (lmaxx) =  3
     file C.pbe-n-kjpaw_psl.1.0.0.UPF: wavefunction(s)  2S 2P renormalized

     Subspace diagonalization in iterative solution of the eigenvalue problem:
     a serial algorithm will be used

     Message from routine setup:
     using ibrav=0 with symmetry is DISCOURAGED, use correct ibrav instead

     bravais-lattice index     =            0
     lattice parameter (alat)  =       5.4472  a.u.
     unit-cell volume          =     218.5677 (a.u.)^3
     number of atoms/cell      =            3
     number of atomic types    =            2
     number of electrons       =        30.00
     number of Kohn-Sham states=           19
     kinetic-energy cutoff     =      45.0000  Ry
     charge density cutoff     =     360.0000  Ry
     scf convergence threshold =      6.0E-10
     mixing beta               =       0.4000
     number of iterations used =            8  plain     mixing
     Exchange-correlation=  SLA  PW   PBX  PBC
                           (   1   4   3   4   0   0   0)

     celldm(1)=   5.447159  celldm(2)=   0.000000  celldm(3)=   0.000000
     celldm(4)=   0.000000  celldm(5)=   0.000000  celldm(6)=   0.000000

     crystal axes: (cart. coord. in units of alat)
               a(1) = (  -0.500000  -0.866025  -0.000000 )
               a(2) = (  -0.500000   0.866025   0.000000 )
               a(3) = (   0.000000   0.000000  -1.561512 )

     reciprocal axes: (cart. coord. in units 2 pi/alat)
               b(1) = ( -1.000000 -0.577350 -0.000000 )
               b(2) = ( -1.000000  0.577350  0.000000 )
               b(3) = (  0.000000  0.000000 -0.640405 )

     PseudoPot. # 1 for C  read from file:
     /usr/share/espresso/pseudo/C.pbe-n-kjpaw_psl.1.0.0.UPF
     MD5 check sum: 5d2aebdfa2cae82b50a7e79e9516da0f
     Pseudo is Projector augmented-wave + core cor, Zval =  4.0
     Generated using "atomic" code by A. Dal Corso  v.5.1
     Shape of augmentation charge: PSQ
     Using radial grid of 1073 points,  4 beta functions with:
                l(1) =   0
                l(2) =   0
                l(3) =   1
                l(4) =   1
     Q(r) pseudized with 0 coefficients

     PseudoPot. # 2 for V  read from file:
     /usr/share/espresso/pseudo/v_pbe_v1.4.uspp.F.UPF
     MD5 check sum: 22b79981416ebb76fdaf5b1b8640f6fb
     Pseudo is Ultrasoft + core correction, Zval = 13.0
     Generated by new atomic code, or converted to UPF format
     Using radial grid of  853 points,  6 beta functions with:
                l(1) =   0
                l(2) =   0
                l(3) =   1
                l(4) =   1
                l(5) =   2
                l(6) =   2
     Q(r) pseudized with  8 coefficients,  rinner =    1.100   1.100   1.100
                                                       1.100   1.100

     atomic species   valence    mass     pseudopotential
        C              4.00    12.01070     C ( 1.00)
        V             13.00    50.94150     V ( 1.00)

     12 Sym. Ops., with inversion, found

                                    s                        frac. trans.

      isym =  1     identity

 cryst.   s( 1) = (     1          0          0      )
                  (     0          1          0      )
                  (     0          0          1      )

 cart.    s( 1) = (  1.0000000  0.0000000  0.0000000 )
                  (  0.0000000  1.0000000  0.0000000 )
                  (  0.0000000  0.0000000  1.0000000 )

      isym =  2     180 deg rotation - cart. axis [1,0,0]

[...]

      isym =  3     120 deg rotation - cryst. axis [0,0,1]

[...]

      isym =  6     180 deg rotation - cryst. axis [1,1,0]

[...]

      isym =  7     inversion

[...]

      isym =  8     inv. 180 deg rotation - cart. axis [1,0,0]

[...]

      isym =  9     inv. 120 deg rotation - cryst. axis [0,0,1]

 cryst.   s( 9) = (     1          1          0      )
                  (    -1          0          0      )
                  (     0          0         -1      )

 cart.    s( 9) = (  0.5000000  0.8660254  0.0000000 )
                  ( -0.8660254  0.5000000  0.0000000 )
                  (  0.0000000  0.0000000 -1.0000000 )

[...]

 cryst.   s(10) = (     0         -1          0      )
                  (     1          1          0      )
                  (     0          0         -1      )

 cart.    s(10) = (  0.5000000 -0.8660254  0.0000000 )
                  (  0.8660254  0.5000000  0.0000000 )
                  (  0.0000000  0.0000000 -1.0000000 )

[...]

      isym = 12     inv. 180 deg rotation - cryst. axis [1,1,0]

 cryst.   s(12) = (    -1          0          0      )
                  (     1          1          0      )
                  (     0          0          1      )

 cart.    s(12) = (  0.5000000 -0.8660254  0.0000000 )
                  ( -0.8660254 -0.5000000  0.0000000 )
                  (  0.0000000  0.0000000  1.0000000 )

   Cartesian axes

     site n.     atom                  positions (alat units)
         1           V   tau(   1) = (  -0.5000000   0.2886751  -0.3984485  )
         2           V   tau(   2) = (  -0.5000000  -0.2886751  -1.1630630  )
         3           C   tau(   3) = (   0.0000000   0.0000000   0.0000000  )

   Crystallographic axes

     site n.     atom                  positions (cryst. coord.)
         1           V   tau(   1) = (  0.3333333  0.6666667  0.2551685  )
         2           V   tau(   2) = (  0.6666667  0.3333333  0.7448315  )
         3           C   tau(   3) = ( -0.0000000  0.0000000  0.0000000  )

     number of k points=   595  Marzari-Vanderbilt smearing, width (Ry)=  0.0147
                       cart. coord. in units 2pi/alat
        k(    1) = (  -0.0769231   0.0000000  -0.0246310), wk =   0.0036413
        k(    2) = (  -0.0769231   0.0000000  -0.0738929), wk =   0.0036413
        k(    3) = (  -0.0769231   0.0000000  -0.1231548), wk =   0.0036413
        k(    4) = (  -0.0769231   0.0000000  -0.1724168), wk =   0.0036413
        k(    5) = (  -0.0769231   0.0000000  -0.2216787), wk =   0.0036413
        k(    6) = (  -0.0769231   0.0000000  -0.2709406), wk =   0.0036413
        k(    7) = (  -0.0769231   0.0000000   0.3202026), wk =   0.0018207
        k(    8) = (  -0.1538462   0.0444116  -0.0246310), wk =   0.0036413
        k(    9) = (  -0.1538462   0.0444116  -0.0738929), wk =   0.0036413
        k(   10) = (  -0.1538462   0.0444116  -0.1231548), wk =   0.0036413
        k(   11) = (  -0.1538462   0.0444116  -0.1724168), wk =   0.0036413
        k(   12) = (  -0.1538462   0.0444116  -0.2216787), wk =   0.0036413
        k(   13) = (  -0.1538462   0.0444116  -0.2709406), wk =   0.0036413
        k(   14) = (  -0.1538462   0.0444116   0.3202026), wk =   0.0036413
        k(   15) = (  -0.2307692   0.0888231  -0.0246310), wk =   0.0036413
        k(   16) = (  -0.2307692   0.0888231  -0.0738929), wk =   0.0036413
        k(   17) = (  -0.2307692   0.0888231  -0.1231548), wk =   0.0036413
        k(   18) = (  -0.2307692   0.0888231  -0.1724168), wk =   0.0036413
        k(   19) = (  -0.2307692   0.0888231  -0.2216787), wk =   0.0036413
        k(   20) = (  -0.2307692   0.0888231  -0.2709406), wk =   0.0036413
        k(   21) = (  -0.2307692   0.0888231   0.3202026), wk =   0.0036413
        k(   22) = (  -0.3076923   0.1332347  -0.0246310), wk =   0.0036413
        k(   23) = (  -0.3076923   0.1332347  -0.0738929), wk =   0.0036413
        k(   24) = (  -0.3076923   0.1332347  -0.1231548), wk =   0.0036413
        k(   25) = (  -0.3076923   0.1332347  -0.1724168), wk =   0.0036413
        k(   26) = (  -0.3076923   0.1332347  -0.2216787), wk =   0.0036413
        k(   27) = (  -0.3076923   0.1332347  -0.2709406), wk =   0.0036413
        k(   28) = (  -0.3076923   0.1332347   0.3202026), wk =   0.0036413
        k(   29) = (  -0.3846154   0.1776462  -0.0246310), wk =   0.0036413
        k(   30) = (  -0.3846154   0.1776462  -0.0738929), wk =   0.0036413
        k(   31) = (  -0.3846154   0.1776462  -0.1231548), wk =   0.0036413
        k(   32) = (  -0.3846154   0.1776462  -0.1724168), wk =   0.0036413
        k(   33) = (  -0.3846154   0.1776462  -0.2216787), wk =   0.0036413
        k(   34) = (  -0.3846154   0.1776462  -0.2709406), wk =   0.0036413
        k(   35) = (  -0.3846154   0.1776462   0.3202026), wk =   0.0036413
        k(   36) = (  -0.4615385   0.2220578  -0.0246310), wk =   0.0036413
        k(   37) = (  -0.4615385   0.2220578  -0.0738929), wk =   0.0036413
        k(   38) = (  -0.4615385   0.2220578  -0.1231548), wk =   0.0036413
        k(   39) = (  -0.4615385   0.2220578  -0.1724168), wk =   0.0036413
        k(   40) = (  -0.4615385   0.2220578  -0.2216787), wk =   0.0036413
        k(   41) = (  -0.4615385   0.2220578  -0.2709406), wk =   0.0036413
        k(   42) = (  -0.4615385   0.2220578   0.3202026), wk =   0.0036413
        k(   43) = (   0.4615385  -0.3108809  -0.0246310), wk =   0.0036413
        k(   44) = (   0.4615385  -0.3108809  -0.0738929), wk =   0.0036413
        k(   45) = (   0.4615385  -0.3108809  -0.1231548), wk =   0.0036413
        k(   46) = (   0.4615385  -0.3108809  -0.1724168), wk =   0.0036413
        k(   47) = (   0.4615385  -0.3108809  -0.2216787), wk =   0.0036413
        k(   48) = (   0.4615385  -0.3108809  -0.2709406), wk =   0.0036413
        k(   49) = (   0.4615385  -0.3108809   0.3202026), wk =   0.0036413
        k(   50) = (   0.3846154  -0.2664694  -0.0246310), wk =   0.0036413
        k(   51) = (   0.3846154  -0.2664694  -0.0738929), wk =   0.0036413
        k(   52) = (   0.3846154  -0.2664694  -0.1231548), wk =   0.0036413
        k(   53) = (   0.3846154  -0.2664694  -0.1724168), wk =   0.0036413
        k(   54) = (   0.3846154  -0.2664694  -0.2216787), wk =   0.0036413
        k(   55) = (   0.3846154  -0.2664694  -0.2709406), wk =   0.0036413
        k(   56) = (   0.3846154  -0.2664694   0.3202026), wk =   0.0036413
        k(   57) = (   0.3076923  -0.2220578  -0.0246310), wk =   0.0036413
        k(   58) = (   0.3076923  -0.2220578  -0.0738929), wk =   0.0036413
        k(   59) = (   0.3076923  -0.2220578  -0.1231548), wk =   0.0036413
        k(   60) = (   0.3076923  -0.2220578  -0.1724168), wk =   0.0036413
[...]
        k(  581) = (   0.0000000  -0.3997040   0.1724168), wk =   0.0018207
        k(  582) = (   0.0000000  -0.3997040   0.2216787), wk =   0.0018207
        k(  583) = (   0.0000000  -0.3997040   0.2709406), wk =   0.0018207
        k(  584) = (  -0.0769231  -0.5329387   0.0246310), wk =   0.0036413
        k(  585) = (  -0.0769231  -0.5329387   0.0738929), wk =   0.0036413
        k(  586) = (  -0.0769231  -0.5329387   0.1231548), wk =   0.0036413
        k(  587) = (  -0.0769231  -0.5329387   0.1724168), wk =   0.0036413
        k(  588) = (  -0.0769231  -0.5329387   0.2216787), wk =   0.0036413
        k(  589) = (  -0.0769231  -0.5329387   0.2709406), wk =   0.0036413
        k(  590) = (   0.0000000  -0.4885272   0.0246310), wk =   0.0018207
        k(  591) = (   0.0000000  -0.4885272   0.0738929), wk =   0.0018207
        k(  592) = (   0.0000000  -0.4885272   0.1231548), wk =   0.0018207
        k(  593) = (   0.0000000  -0.4885272   0.1724168), wk =   0.0018207
        k(  594) = (   0.0000000  -0.4885272   0.2216787), wk =   0.0018207
        k(  595) = (   0.0000000  -0.4885272   0.2709406), wk =   0.0018207

                       cryst. coord.
        k(    1) = (   0.0384615   0.0384615   0.0384615), wk =   0.0036413
        k(    2) = (   0.0384615   0.0384615   0.1153846), wk =   0.0036413
        k(    3) = (   0.0384615   0.0384615   0.1923077), wk =   0.0036413
        k(    4) = (   0.0384615   0.0384615   0.2692308), wk =   0.0036413
        k(    5) = (   0.0384615   0.0384615   0.3461538), wk =   0.0036413
        k(    6) = (   0.0384615   0.0384615   0.4230769), wk =   0.0036413
        k(    7) = (   0.0384615   0.0384615  -0.5000000), wk =   0.0018207
        k(    8) = (   0.0384615   0.1153846   0.0384615), wk =   0.0036413
        k(    9) = (   0.0384615   0.1153846   0.1153846), wk =   0.0036413
        k(   10) = (   0.0384615   0.1153846   0.1923077), wk =   0.0036413
        k(   11) = (   0.0384615   0.1153846   0.2692308), wk =   0.0036413
        k(   12) = (   0.0384615   0.1153846   0.3461538), wk =   0.0036413
        k(   13) = (   0.0384615   0.1153846   0.4230769), wk =   0.0036413
        k(   14) = (   0.0384615   0.1153846  -0.5000000), wk =   0.0036413
        k(   15) = (   0.0384615   0.1923077   0.0384615), wk =   0.0036413
        k(   16) = (   0.0384615   0.1923077   0.1153846), wk =   0.0036413
        k(   17) = (   0.0384615   0.1923077   0.1923077), wk =   0.0036413
        k(   18) = (   0.0384615   0.1923077   0.2692308), wk =   0.0036413
        k(   19) = (   0.0384615   0.1923077   0.3461538), wk =   0.0036413
        k(   20) = (   0.0384615   0.1923077   0.4230769), wk =   0.0036413
        k(   21) = (   0.0384615   0.1923077  -0.5000000), wk =   0.0036413
        k(   22) = (   0.0384615   0.2692308   0.0384615), wk =   0.0036413
        k(   23) = (   0.0384615   0.2692308   0.1153846), wk =   0.0036413
        k(   24) = (   0.0384615   0.2692308   0.1923077), wk =   0.0036413
        k(   25) = (   0.0384615   0.2692308   0.2692308), wk =   0.0036413
        k(   26) = (   0.0384615   0.2692308   0.3461538), wk =   0.0036413
        k(   27) = (   0.0384615   0.2692308   0.4230769), wk =   0.0036413
        k(   28) = (   0.0384615   0.2692308  -0.5000000), wk =   0.0036413
        k(   29) = (   0.0384615   0.3461538   0.0384615), wk =   0.0036413
        k(   30) = (   0.0384615   0.3461538   0.1153846), wk =   0.0036413
        k(   31) = (   0.0384615   0.3461538   0.1923077), wk =   0.0036413
        k(   32) = (   0.0384615   0.3461538   0.2692308), wk =   0.0036413
        k(   33) = (   0.0384615   0.3461538   0.3461538), wk =   0.0036413
        k(   34) = (   0.0384615   0.3461538   0.4230769), wk =   0.0036413
        k(   35) = (   0.0384615   0.3461538  -0.5000000), wk =   0.0036413
        k(   36) = (   0.0384615   0.4230769   0.0384615), wk =   0.0036413
        k(   37) = (   0.0384615   0.4230769   0.1153846), wk =   0.0036413
        k(   38) = (   0.0384615   0.4230769   0.1923077), wk =   0.0036413
        k(   39) = (   0.0384615   0.4230769   0.2692308), wk =   0.0036413
        k(   40) = (   0.0384615   0.4230769   0.3461538), wk =   0.0036413
        k(   41) = (   0.0384615   0.4230769   0.4230769), wk =   0.0036413
        k(   42) = (   0.0384615   0.4230769  -0.5000000), wk =   0.0036413
        k(   43) = (   0.0384615  -0.5000000   0.0384615), wk =   0.0036413
        k(   44) = (   0.0384615  -0.5000000   0.1153846), wk =   0.0036413
        k(   45) = (   0.0384615  -0.5000000   0.1923077), wk =   0.0036413
        k(   46) = (   0.0384615  -0.5000000   0.2692308), wk =   0.0036413
        k(   47) = (   0.0384615  -0.5000000   0.3461538), wk =   0.0036413
        k(   48) = (   0.0384615  -0.5000000   0.4230769), wk =   0.0036413
        k(   49) = (   0.0384615  -0.5000000  -0.5000000), wk =   0.0036413
        k(   50) = (   0.0384615  -0.4230769   0.0384615), wk =   0.0036413
        k(   51) = (   0.0384615  -0.4230769   0.1153846), wk =   0.0036413
        k(   52) = (   0.0384615  -0.4230769   0.1923077), wk =   0.0036413
        k(   53) = (   0.0384615  -0.4230769   0.2692308), wk =   0.0036413
        k(   54) = (   0.0384615  -0.4230769   0.3461538), wk =   0.0036413
        k(   55) = (   0.0384615  -0.4230769   0.4230769), wk =   0.0036413
        k(   56) = (   0.0384615  -0.4230769  -0.5000000), wk =   0.0036413
        k(   57) = (   0.0384615  -0.3461538   0.0384615), wk =   0.0036413
        k(   58) = (   0.0384615  -0.3461538   0.1153846), wk =   0.0036413
        k(   59) = (   0.0384615  -0.3461538   0.1923077), wk =   0.0036413
        k(   60) = (   0.0384615  -0.3461538   0.2692308), wk =   0.0036413
[...]
        k(  581) = (   0.3461538  -0.3461538  -0.2692308), wk =   0.0018207
        k(  582) = (   0.3461538  -0.3461538  -0.3461538), wk =   0.0018207
        k(  583) = (   0.3461538  -0.3461538  -0.4230769), wk =   0.0018207
        k(  584) = (   0.5000000  -0.4230769  -0.0384615), wk =   0.0036413
        k(  585) = (   0.5000000  -0.4230769  -0.1153846), wk =   0.0036413
        k(  586) = (   0.5000000  -0.4230769  -0.1923077), wk =   0.0036413
        k(  587) = (   0.5000000  -0.4230769  -0.2692308), wk =   0.0036413
        k(  588) = (   0.5000000  -0.4230769  -0.3461538), wk =   0.0036413
        k(  589) = (   0.5000000  -0.4230769  -0.4230769), wk =   0.0036413
        k(  590) = (   0.4230769  -0.4230769  -0.0384615), wk =   0.0018207
        k(  591) = (   0.4230769  -0.4230769  -0.1153846), wk =   0.0018207
        k(  592) = (   0.4230769  -0.4230769  -0.1923077), wk =   0.0018207
        k(  593) = (   0.4230769  -0.4230769  -0.2692308), wk =   0.0018207
        k(  594) = (   0.4230769  -0.4230769  -0.3461538), wk =   0.0018207
        k(  595) = (   0.4230769  -0.4230769  -0.4230769), wk =   0.0018207

     Check: negative core charge=   -0.000007

     Initial potential from superposition of free atoms

     starting charge   29.99750, renormalised to   30.00000

     negative rho (up, down):  1.226E-03 0.000E+00
     Starting wfcs are   24 randomized atomic wfcs
     Checking if some PAW data can be deallocated...

     Self-consistent Calculation

     iteration #  1     ecut=    45.00 Ry     beta= 0.40
     Davidson diagonalization with overlap
     ethr =  1.00E-02,  avg # of iterations =  2.0

     negative rho (up, down):  1.736E-03 0.000E+00

     total energy              =    -308.33302198 Ry
     estimated scf accuracy    <       1.02371365 Ry

[...]

     iteration #  7     ecut=    45.00 Ry     beta= 0.40
     Davidson diagonalization with overlap
     c_bands:  1 eigenvalues not converged
     c_bands:  1 eigenvalues not converged
     ethr =  3.27E-07,  avg # of iterations =  5.8

[...]

     iteration #  9     ecut=    45.00 Ry     beta= 0.40
     Davidson diagonalization with overlap
     c_bands:  1 eigenvalues not converged
     ethr =  1.31E-09,  avg # of iterations =  5.7

[...]

     total energy              =    -308.69752444 Ry
     estimated scf accuracy    <          5.4E-09 Ry

     iteration # 12     ecut=    45.00 Ry     beta= 0.40
     Davidson diagonalization with overlap
     ethr =  1.79E-11,  avg # of iterations =  4.5

[...]

     End of self-consistent calculation

          k =-0.0769 0.0000-0.0246 (  1101 PWs)   bands (ev):

   -48.0916 -47.9838 -22.1789 -21.7694 -21.7599 -21.6886 -21.6745 -21.5889
     3.7283  10.6356  13.0796  13.3890  14.2550  16.1304  16.3085  16.4009
    16.5056  16.6323  17.6943

     occupation numbers
     1.0000   1.0000   1.0000   1.0000   1.0000   1.0000   1.0000   1.0000
     1.0000   1.0000   1.0000   1.0000   1.0000   0.3659   0.0361   0.0060
     0.0005   0.0000   0.0000

[...]

          k = 0.4615-0.3109-0.0246 (  1115 PWs)   bands (ev):

[...]

          k =-0.0769-0.5329 0.2709 (  1123 PWs)   bands (ev):

[...]

          k = 0.0000-0.4885 0.2709 (  1122 PWs)   bands (ev):

   -47.9964 -47.9854 -22.1523 -22.1353 -21.8138 -21.7761 -21.7732 -21.7152
     5.4876  10.3367  12.1532  13.1983  14.3088  14.9851  15.8430  17.0463
    17.6362  18.1821  18.3244

     occupation numbers
     1.0000   1.0000   1.0000   1.0000   1.0000   1.0000   1.0000   1.0000
     1.0000   1.0000   1.0000   1.0000   1.0000   1.0000   1.0831   0.0000
     0.0000   0.0000   0.0000

     the Fermi energy is    16.1201 ev

!    total energy              =    -308.69752444 Ry
     estimated scf accuracy    <          1.7E-10 Ry
     smearing contrib. (-TS)   =       0.00098498 Ry
     internal energy E=F+TS    =    -308.69850943 Ry

     The total energy is F=E-TS. E is the sum of the following terms:
     one-electron contribution =     -93.71487218 Ry
     hartree contribution      =      61.80388265 Ry
     xc contribution           =     -43.89965067 Ry
     ewald contribution        =    -226.71183035 Ry
     one-center paw contrib.   =      -6.17603887 Ry
      -> PAW hartree energy AE =       8.13049101 Ry
      -> PAW hartree energy PS =      -8.12143405 Ry
      -> PAW xc energy AE      =     -10.35010747 Ry
      -> PAW xc energy PS      =       4.16501164 Ry
      -> total E_H with PAW    =      61.81293961 Ry
      -> total E_XC with PAW   =     -50.08474651 Ry

     convergence has been achieved in  12 iterations

     negative rho (up, down):  1.844E-03 0.000E+00

     Forces acting on atoms (cartesian axes, Ry/au):

     atom    1 type  2   force =     0.00000000    0.00000000    0.00596200
     atom    2 type  2   force =     0.00000000    0.00000000   -0.00596200
     atom    3 type  1   force =     0.00000000    0.00000000    0.00000000
     The non-local contrib.  to forces
     atom    1 type  2   force =    -0.00000000    0.00000000    0.06919098
     atom    2 type  2   force =     0.00000000    0.00000000   -0.06919098
     atom    3 type  1   force =     0.00000000    0.00000000    0.00000000
     The ionic contribution  to forces
     atom    1 type  2   force =     0.00000000   -0.00000000   -7.45609022
     atom    2 type  2   force =    -0.00000000    0.00000000    7.45609022
     atom    3 type  1   force =     0.00000000   -0.00000000    0.00000000
     The local contribution  to forces
     atom    1 type  2   force =    -0.00000000   -0.00000003    7.39204953
     atom    2 type  2   force =     0.00000000    0.00000003   -7.39204953
     atom    3 type  1   force =     0.00000000    0.00000000   -0.00000000
     The core correction contribution to forces
     atom    1 type  2   force =     0.00000000    0.00000000    0.00085242
     atom    2 type  2   force =     0.00000000   -0.00000000   -0.00085242
     atom    3 type  1   force =    -0.00000000    0.00000000   -0.00000000
     The Hubbard contrib.    to forces
     atom    1 type  2   force =     0.00000000    0.00000000    0.00000000
     atom    2 type  2   force =     0.00000000    0.00000000    0.00000000
     atom    3 type  1   force =     0.00000000    0.00000000    0.00000000
     The SCF correction term to forces
     atom    1 type  2   force =     0.00000000    0.00000000   -0.00004072
     atom    2 type  2   force =    -0.00000000   -0.00000000    0.00004072
     atom    3 type  1   force =     0.00000000    0.00000000   -0.00000000

     Total force =     0.008432     Total SCF correction =     0.000058

     Writing output data file ./out/v2c.save/

     General routines

     Parallel routines

     PAW routines

   This run was terminated on:   3:51: 2   3Jun2024

   JOB DONE.